2
37
0 32 72 1 3 29 44 33 51 26 37 64 58 13 18 53 12 28 47 73 27 20 46 4 56 14 36 35 19 69 59 70 68 60 61 21 63
40
0 41 40 42 55 22 23 48 15 2 43 17 49 54 24 31 8 38 71 30 9 57 39 11 25 16 50 5 75 66 6 65 10 52 34 7 45 74 67 62
